100
[20,21,22,24,25,27,30,31,32,34,35,36,37,40,41,42,43,44,45,49,50,51,52,53,54,55,56,57,58,60,61,62,64,65,68,70,71,72,73,74,75,76,77,78,80]
[1,2,2,1,1,2,2,2,2,3,4,2,2,2,2,6,1,3,1,4,2,2,1,5,1,1,2,2,3,2,1,2,2,1,1,3,5,6,3,2,1,3,1,2,1]
